************************************************************************
file with basedata            : n/a
initial value random generator: n/a
************************************************************************
projects                      :  1
jobs (incl. supersource/sink ):  122
horizon                       :  607
RESOURCES
  - renewable                 :  4   R
  - nonrenewable              :  0   N
  - doubly constrained        :  0   D
************************************************************************
PROJECT INFORMATION:
pronr.  #jobs rel.date duedate tardcost  MPM-Time
    1    120      0       94       29       94
************************************************************************
PRECEDENCE RELATIONS:
jobnr.    #modes  #successors   successors
   1        1          3           2   3   4
   2        1          2           7  30
   3        1          3           5   6  12
   4        1          1          48
   5        1          2          28  79
   6        1          1         116
   7        1          3           8   9  10
   8        1          3          13  18  74
   9        1          3          11  17  47
  10        1          1          27
  11        1          1          31
  12        1          3          14  38  65
  13        1          3          16  24  25
  14        1          3          15  27  57
  15        1          3          19  33  41
  16        1          3          20  35  37
  17        1          3          21  22  23
  18        1          1          62
  19        1          1          43
  20        1          2          42  49
  21        1          1         101
  22        1          1          26
  23        1          3          32  34  87
  24        1          3          40  69 113
  25        1          2          29  83
  26        1          2          66  89
  27        1          3          44  55  81
  28        1          1          68
  29        1          1         103
  30        1          2          59  63
  31        1          1          86
  32        1          1          80
  33        1          1          39
  34        1          3          36  43  45
  35        1          1         101
  36        1          2          46  61
  37        1          2          53  56
  38        1          1          52
  39        1          2          50  85
  40        1          1          77
  41        1          1          87
  42        1          2          51  73
  43        1          1          58
  44        1          1          97
  45        1          1          54
  46        1          1         120
  47        1          1          76
  48        1          2          49 111
  49        1          1          93
  50        1          1         115
  51        1          2         100 116
  52        1          1          93
  53        1          2          60  78
  54        1          1          97
  55        1          1          70
  56        1          1          63
  57        1          2          70  96
  58        1          1          64
  59        1          1         104
  60        1          1         104
  61        1          3          91  98 106
  62        1          1          81
  63        1          1          81
  64        1          2          75  86
  65        1          2          67  92
  66        1          1          95
  67        1          2          72 109
  68        1          1         102
  69        1          1          73
  70        1          2          71  88
  71        1          1          99
  72        1          2         112 118
  73        1          1         103
  74        1          1         117
  75        1          2          94 113
  76        1          1          78
  77        1          3          82  83 110
  78        1          1         114
  79        1          1          94
  80        1          1          90
  81        1          1          84
  82        1          1          98
  83        1          2          93  99
  84        1          1         101
  85        1          1          94
  86        1          1          98
  87        1          1         108
  88        1          1         107
  89        1          1          90
  90        1          1         105
  91        1          1         115
  92        1          1         109
  93        1          2         107 108
  94        1          2          95 103
  95        1          1         115
  96        1          2          99 100
  97        1          2         110 112
  98        1          1         104
  99        1          2         105 107
 100        1          2         102 112
 101        1          1         114
 102        1          1         114
 103        1          2         109 111
 104        1          1         121
 105        1          1         111
 106        1          1         110
 107        1          1         119
 108        1          1         118
 109        1          1         121
 110        1          1         117
 111        1          1         120
 112        1          1         113
 113        1          1         120
 114        1          1         117
 115        1          1         119
 116        1          1         118
 117        1          1         121
 118        1          1         119
 119        1          1         122
 120        1          1         122
 121        1          1         122
 122        1          0        
************************************************************************
REQUESTS/DURATIONS:
jobnr. mode duration  R 1  R 2  R 3  R 4
------------------------------------------------------------------------
  1      1     0    
  2      1     8       6   6   6   6   6   6   6   6
                       0   0   0   0   0   0   0   0
                       5   5   5   5   5   5   5   5
                       2   2   2   2   2   2   2   2
  3      1     6       5   5   3   5   5   5
                       8   8   4   8   8   8
                       3   3   2   3   3   3
                      10  10   5  10  10  10
  4      1     7       0   0   0   0   0   0   0
                       4   4   4   4   2   4   4
                       4   4   4   4   2   4   4
                       7   7   7   7   4   7   7
  5      1     7       1   1   1   1   1   1   1
                       8   8   8   8   8   8   8
                       7   7   7   7   7   7   7
                       0   0   0   0   0   0   0
  6      1     2       7   7
                       1   1
                      10  10
                       6   6
  7      1    10       5   5   3   5   5   5   5   5   5   5
                       6   6   3   6   6   6   6   6   6   6
                       0   0   0   0   0   0   0   0   0   0
                       2   2   1   2   2   2   2   2   2   2
  8      1     2       5   5
                       0   0
                       7   7
                       0   0
  9      1     1       4
                       0
                       0
                       7
 10      1     1       6
                       0
                       3
                       0
 11      1     6       2   2   2   2   1   1
                       3   3   3   3   2   2
                       2   2   2   2   1   1
                       7   7   7   7   4   4
 12      1     1       0
                       5
                       0
                       1
 13      1     2       0   0
                       4   8
                       2   4
                       0   0
 14      1     4       5   3   5   5
                       0   0   0   0
                       9   5   9   9
                       0   0   0   0
 15      1     2       5   5
                      10  10
                       4   4
                       2   2
 16      1     6       0   0   0   0   0   0
                       1   1   1   1   1   1
                       0   0   0   0   0   0
                       2   2   2   2   2   2
 17      1     3       9   9   9
                       5   5   5
                       0   0   0
                       1   1   1
 18      1    10       9   9   9   9   5   9   9   9   9   9
                      10  10  10  10   5  10  10  10  10  10
                       1   1   1   1   1   1   1   1   1   1
                       4   4   4   4   2   4   4   4   4   4
 19      1     1       8
                       7
                       8
                       4
 20      1     1       4
                       2
                       1
                       5
 21      1     3       1   1   1
                       0   0   0
                       9   9   9
                       4   4   4
 22      1     8       0   0   0   0   0   0   0   0
                       5   9   9   9   5   9   9   9
                       1   1   1   1   1   1   1   1
                       3   5   5   5   3   5   5   5
 23      1     3      10  10  10
                       0   0   0
                       7   7   7
                       6   6   6
 24      1     5      10  10   5  10  10
                       5   5   3   5   5
                       4   4   2   4   4
                       4   4   2   4   4
 25      1     1       7
                       6
                       9
                       0
 26      1     8       7   7   7   7   7   7   7   7
                       1   1   1   1   1   1   1   1
                       1   1   1   1   1   1   1   1
                       8   8   8   8   8   8   8   8
 27      1     3       4   4   4
                       5   5   5
                       9   9   9
                       0   0   0
 28      1     1       0
                       1
                       6
                       2
 29      1     9      10  10  10  10   5   5  10  10  10
                       0   0   0   0   0   0   0   0   0
                       6   6   6   6   3   3   6   6   6
                       1   1   1   1   1   1   1   1   1
 30      1     5       0   0   0   0   0
                       6   6   6   6   6
                       2   2   2   2   2
                       3   3   3   3   3
 31      1     1       6
                       6
                       4
                       1
 32      1     8       4   4   4   4   4   4   2   4
                       0   0   0   0   0   0   0   0
                       0   0   0   0   0   0   0   0
                       9   9   9   9   9   9   5   9
 33      1     4       8   8   8   8
                       5   5   5   5
                       1   1   1   1
                       1   1   1   1
 34      1     7      10  10  10  10  10  10  10
                       0   0   0   0   0   0   0
                       0   0   0   0   0   0   0
                       3   3   3   3   3   3   3
 35      1     5       5   5   5   5   3
                       0   0   0   0   0
                       0   0   0   0   0
                       5   5   5   5   3
 36      1     6       1   1   1   1   1   1
                       9   9   9   9   5   9
                       1   1   1   1   1   1
                       0   0   0   0   0   0
 37      1     4       9   9   9   9
                       0   0   0   0
                      10  10  10  10
                       0   0   0   0
 38      1     3       9   9   9
                       8   8   8
                       4   4   4
                       4   4   4
 39      1     4       9   5   9   9
                       7   4   7   7
                       5   3   5   5
                      10   5  10  10
 40      1     2       2   3
                       0   0
                       1   1
                       5  10
 41      1     7       9   9   5   9   9   9   9
                       7   7   4   7   7   7   7
                       0   0   0   0   0   0   0
                       2   2   1   2   2   2   2
 42      1     2       0   0
                       5   5
                       0   0
                       6   6
 43      1     1       8
                       0
                       7
                       2
 44      1     8       1   1   1   1   1   1   1   1
                       5   3   5   5   5   3   5   5
                       1   1   1   1   1   1   1   1
                       0   0   0   0   0   0   0   0
 45      1     8       0   0   0   0   0   0   0   0
                       8   8   8   8   8   8   8   8
                      10  10  10  10  10  10  10  10
                       1   1   1   1   1   1   1   1
 46      1     4       0   0   0   0
                       5   5   5   5
                       1   1   1   1
                       0   0   0   0
 47      1     4       7   7   7   7
                       0   0   0   0
                       1   1   1   1
                       9   9   9   9
 48      1     9       0   0   0   0   0   0   0   0   0
                       5   5   5   5   5   5   5   5   5
                       8   8   8   8   8   8   8   8   8
                       0   0   0   0   0   0   0   0   0
 49      1     5       0   0   0   0   0
                       3   3   3   3   3
                       6   6   6   6   6
                       2   2   2   2   2
 50      1     1       0
                       9
                       8
                      10
 51      1     7       5   9   9   5   9   9   9
                       2   3   3   2   3   3   3
                       4   8   8   4   8   8   8
                       0   0   0   0   0   0   0
 52      1     2       0   0
                       2   2
                       3   3
                       0   0
 53      1     6       5   5   5   5   5   5
                      10  10  10  10  10  10
                       7   7   7   7   7   7
                       8   8   8   8   8   8
 54      1     6       8   8   4   8   8   4
                       7   7   4   7   7   4
                       2   2   1   2   2   1
                       8   8   4   8   8   4
 55      1     9       0   0   0   0   0   0   0   0   0
                       4   4   4   4   4   4   4   4   4
                       0   0   0   0   0   0   0   0   0
                       1   1   1   1   1   1   1   1   1
 56      1     9       0   0   0   0   0   0   0   0   0
                      10  10  10  10  10  10   5  10  10
                       6   6   6   6   6   6   3   6   6
                       0   0   0   0   0   0   0   0   0
 57      1     3       4   4   4
                       0   0   0
                       9   9   9
                       6   6   6
 58      1     9       0   0   0   0   0   0   0   0   0
                       1   1   1   1   1   1   1   1   1
                       0   0   0   0   0   0   0   0   0
                      10  10   5  10  10   5  10  10  10
 59      1     9       8   8   8   4   8   8   8   8   8
                       7   7   7   4   7   7   7   7   7
                       8   8   8   4   8   8   8   8   8
                       7   7   7   4   7   7   7   7   7
 60      1     2       5  10
                       2   3
                       2   4
                       1   2
 61      1     1       8
                       9
                       0
                       2
 62      1     6       0   0   0   0   0   0
                       5   5   3   5   5   5
                       0   0   0   0   0   0
                       4   4   2   4   4   4
 63      1     4       0   0   0   0
                       2   2   1   2
                       1   1   1   1
                       9   9   5   9
 64      1     2       5   5
                       9   9
                       6   6
                       0   0
 65      1     7       3   5   5   5   5   5   5
                       2   4   4   4   4   4   4
                       0   0   0   0   0   0   0
                       1   2   2   2   2   2   2
 66      1     4       4   2   4   4
                       3   2   3   3
                       8   4   8   8
                       4   2   4   4
 67      1     3       1   1   1
                       0   0   0
                       0   0   0
                       0   0   0
 68      1     8       0   0   0   0   0   0   0   0
                       2   4   4   4   4   4   4   4
                       3   6   6   6   6   6   6   6
                       0   0   0   0   0   0   0   0
 69      1     1       4
                       0
                       5
                       3
 70      1     3       4   4   4
                       0   0   0
                       1   1   1
                       0   0   0
 71      1     2       0   0
                       3   3
                       0   0
                      10  10
 72      1     9       0   0   0   0   0   0   0   0   0
                       7   7   7   7   7   7   7   7   4
                       3   3   3   3   3   3   3   3   2
                      10  10  10  10  10  10  10  10   5
 73      1     1       6
                       0
                       8
                       5
 74      1     7       5   5   3   5   5   5   5
                       8   8   4   8   8   8   8
                       3   3   2   3   3   3   3
                       2   2   1   2   2   2   2
 75      1     1      10
                       1
                       5
                       0
 76      1     3       0   0   0
                      10  10  10
                       4   4   4
                       0   0   0
 77      1     2       0   0
                      10  10
                       1   1
                       7   7
 78      1     5      10  10  10  10  10
                      10  10  10  10  10
                       2   2   2   2   2
                       7   7   7   7   7
 79      1     6       6   6   6   6   6   6
                       0   0   0   0   0   0
                       0   0   0   0   0   0
                      10  10  10  10  10  10
 80      1     4       6   6   6   6
                       8   8   8   8
                       4   4   4   4
                       1   1   1   1
 81      1    10       8   8   8   8   8   8   4   8   8   8
                       0   0   0   0   0   0   0   0   0   0
                       7   7   7   7   7   7   4   7   7   7
                       4   4   4   4   4   4   2   4   4   4
 82      1     6       0   0   0   0   0   0
                       6   6   6   6   6   6
                       0   0   0   0   0   0
                      10  10  10  10  10  10
 83      1     1       6
                       0
                       6
                       7
 84      1    10       5   5   5   5   5   5   5   5   5   3
                       6   6   6   6   6   6   6   6   6   3
                       0   0   0   0   0   0   0   0   0   0
                       3   3   3   3   3   3   3   3   3   2
 85      1     4       3   3   3   3
                       3   3   3   3
                       7   7   7   7
                      10  10  10  10
 86      1    10       1   1   1   1   1   1   1   1   1   1
                       9   9   9   9   5   9   9   9   9   9
                       0   0   0   0   0   0   0   0   0   0
                       0   0   0   0   0   0   0   0   0   0
 87      1     3       2   2   1
                       2   2   1
                       0   0   0
                       8   8   4
 88      1     5       0   0   0   0   0
                       1   2   2   2   2
                       2   4   4   4   4
                       1   1   1   1   1
 89      1     1       4
                      10
                       0
                       5
 90      1    10       5   5   5   5   5   3   5   5   5   5
                       8   8   8   8   8   4   8   8   8   8
                       0   0   0   0   0   0   0   0   0   0
                       4   4   4   4   4   2   4   4   4   4
 91      1     5       2   2   2   2   2
                       3   3   3   3   3
                       7   7   7   7   7
                       0   0   0   0   0
 92      1     7       5   3   5   5   5   5   5
                       7   4   7   7   7   7   7
                       5   3   5   5   5   5   5
                       5   3   5   5   5   5   5
 93      1     9       0   0   0   0   0   0   0   0   0
                       2   2   2   2   1   2   2   2   2
                       4   4   4   4   2   4   4   4   4
                       1   1   1   1   1   1   1   1   1
 94      1     9       5   5   5   5   5   3   5   5   3
                       4   4   4   4   4   2   4   4   2
                       4   4   4   4   4   2   4   4   2
                      10  10  10  10  10   5  10  10   5
 95      1     8       5   5   3   5   5   5   5   5
                       7   7   4   7   7   7   7   7
                       0   0   0   0   0   0   0   0
                       0   0   0   0   0   0   0   0
 96      1     2       2   2
                       7   7
                       2   2
                       8   8
 97      1     1       3
                       4
                      10
                       1
 98      1     7       5  10  10  10  10  10  10
                       0   0   0   0   0   0   0
                       4   7   7   7   7   7   7
                       4   8   8   8   8   8   8
 99      1     6       0   0   0   0   0   0
                      10  10  10  10  10  10
                       0   0   0   0   0   0
                       9   9   9   9   9   9
100      1     1       7
                       6
                       4
                       9
101      1    10       9   9   9   9   9   9   9   9   9   9
                      10  10  10  10  10  10  10  10  10  10
                       8   8   8   8   8   8   8   8   8   8
                       2   2   2   2   2   2   2   2   2   2
102      1     4       1   2   2   2
                       3   5   5   5
                       4   7   7   7
                       0   0   0   0
103      1     9       7   4   4   7   7   4   7   7   7
                       7   4   4   7   7   4   7   7   7
                       6   3   3   6   6   3   6   6   6
                       2   1   1   2   2   1   2   2   2
104      1     8       6   6   6   6   6   6   6   6
                       2   2   2   2   2   2   2   2
                       7   7   7   7   7   7   7   7
                       6   6   6   6   6   6   6   6
105      1    10       9   9   9   9   9   9   9   9   9   9
                       6   6   6   6   6   6   6   6   6   6
                      10  10  10  10  10  10  10  10  10  10
                       6   6   6   6   6   6   6   6   6   6
106      1     9       0   0   0   0   0   0   0   0   0
                       0   0   0   0   0   0   0   0   0
                       3   3   3   3   3   2   3   3   2
                       6   6   6   6   6   3   6   6   3
107      1     3       3   6   6
                       4   8   8
                       0   0   0
                       2   4   4
108      1     4       9   9   9   9
                       0   0   0   0
                      10  10  10  10
                       0   0   0   0
109      1     3       2   2   2
                       7   7   7
                       8   8   8
                       0   0   0
110      1     7       2   2   2   2   2   2   2
                       0   0   0   0   0   0   0
                       5   5   5   5   5   5   5
                       7   7   7   7   7   7   7
111      1    10       3   3   2   3   3   2   3   3   3   3
                       3   3   2   3   3   2   3   3   3   3
                       9   9   5   9   9   5   9   9   9   9
                       9   9   5   9   9   5   9   9   9   9
112      1    10       5   5   3   5   5   5   5   5   5   5
                       0   0   0   0   0   0   0   0   0   0
                       2   2   1   2   2   2   2   2   2   2
                       4   4   2   4   4   4   4   4   4   4
113      1     9       4   4   4   2   4   4   4   4   4
                       0   0   0   0   0   0   0   0   0
                       4   4   4   2   4   4   4   4   4
                       9   9   9   5   9   9   9   9   9
114      1     4       8   8   8   8
                       8   8   8   8
                       9   9   9   9
                       8   8   8   8
115      1     1       0
                       0
                       8
                       0
116      1     8       6   6   6   6   6   6   6   6
                       1   1   1   1   1   1   1   1
                       6   6   6   6   6   6   6   6
                      10  10  10  10  10  10  10  10
117      1    10       5   5   5   5   5   5   5   5   5   5
                       2   2   2   2   2   2   2   2   2   2
                       7   7   7   7   7   7   7   7   7   7
                       0   0   0   0   0   0   0   0   0   0
118      1     1       0
                       0
                       5
                       9
119      1     6      10  10   5  10   5  10
                       8   8   4   8   4   8
                       6   6   3   6   3   6
                       9   9   5   9   5   9
120      1     1      10
                       2
                       9
                       8
121      1     5       4   4   4   4   4
                       0   0   0   0   0
                       0   0   0   0   0
                       7   7   7   7   7
122      1     0    
************************************************************************
RESOURCEAVAILABILITIES:
  R 1  R 2  R 3  R 4

  11  22  22  22  22  22  22  22  22  22  22  22  22  22  11  22  22  22  11  22  22  22  22  22  22  22  22  22  11  22  22  22  22  22  22  22  22  22  22  22  22  11  11  22  22  22  22  22  22  22  22  22  11  22  22  22  22  22  22  22  22  22  22  22  22  11  22  22  22  22  22  22  22  22  22  22  22  22  22  22  22  22  22  22  22  22  22  22  22  22  11  22  22  22  22  22  22  22  22  22  22  22  22  22  22  22  22  22  22  22  22  11  22  22  22  22  22  22  22  11  22  22  22  22  22  22  22  22  22  22  22  22  22  22  22  22  22  22  11  22  22  22  22  22  22  22  22  22  22  22  22  22  22  22  22  22  22  22  22  11  22  22  22  22  22  22  22  22  22  22  22  22  22  22  22  22  22  22  22  11  22  22  22  22  22  22  11  22  22  22  22  22  22  11  22  22  22  22  22  11  22  22  22  22  22  22  22  22  22  22  22  22  22  22  22  11  22  22  22  22  22  22  22  22  22  22  22  22  22  22  22  22  22  22  22  22  22  22  11  22  22  22  22  22  11  22  22  22  22  22  22  22  22  11  22  22  22  22  11  22  22  11  22  22  22  11  22  11  22  22  22  22  11  22  22  22  22  22  22  22  22  22  22  11  22  22  22  22  22  22  22  22  22  22  22  22  22  22  22  22  11  22  22  22  22  22  22  11  22  22  22  22  11  22  22  22  22  22  22  22  22  22  11  22  22  22  22  22  11  22  22  22  22  22  22  22  22  22  22  22  22  22  22  22  22  22  22  22  22  22  22  22  11  22  11  11  22  22  22  22  11  22  22  22  22  22  22  22  22  22  22  22  22  22  22  22  22  22  11  22  22  22  22  22  11  22  22  22  22  11  22  22  11  22  11  22  22  22  22  22  22  22  22  22  11  22  22  22  22  22  22  22  11  22  22  22  22  11  11  22  22  11  22  11  22  22  22  11  11  22  11  22  22  22  22  11  22  11  22  22  22  22  22  22  22  22  22  22  22  22  22  22  22  22  22  11  11  22  22  22  22  22  22  22  22  22  22  11  22  22  22  22  22  22  22  22  22  22  22  22  22  22  22  22  22  22  22  22  22  22  22  11  22  11  22  22  22  22  22  22  11  22  11  11  22  11  22  11  22  22  22  22  22  11  22  22  22  22  22  22  22  22  22  22  22  11  11  22  22  22  22  22  22  11  22  22  22  11  11  22  22  22  22  22  22  22  22  22  22  22  22  22  22  22  22  22  22  22  22  22  22  22  22  11  11  22  22  22  22  22  22  22  22  22  22  22  22  22  22  22  22  22  22  22  11  11  22  22  22  22  22  22  22  22  22  11  22  22  22  22  22  22  22  22  22  22  22

  12  24  24  24  24  24  24  24  24  24  24  24  24  24  12  24  24  24  12  24  24  24  24  24  24  24  24  24  12  24  24  24  24  24  24  24  24  24  24  24  24  12  12  24  24  24  24  24  24  24  24  24  12  24  24  24  24  24  24  24  24  24  24  24  24  12  24  24  24  24  24  24  24  24  24  24  24  24  24  24  24  24  24  24  24  24  24  24  24  24  12  24  24  24  24  24  24  24  24  24  24  24  24  24  24  24  24  24  24  24  24  12  24  24  24  24  24  24  24  12  24  24  24  24  24  24  24  24  24  24  24  24  24  24  24  24  24  24  12  24  24  24  24  24  24  24  24  24  24  24  24  24  24  24  24  24  24  24  24  12  24  24  24  24  24  24  24  24  24  24  24  24  24  24  24  24  24  24  24  12  24  24  24  24  24  24  12  24  24  24  24  24  24  12  24  24  24  24  24  12  24  24  24  24  24  24  24  24  24  24  24  24  24  24  24  12  24  24  24  24  24  24  24  24  24  24  24  24  24  24  24  24  24  24  24  24  24  24  12  24  24  24  24  24  12  24  24  24  24  24  24  24  24  12  24  24  24  24  12  24  24  12  24  24  24  12  24  12  24  24  24  24  12  24  24  24  24  24  24  24  24  24  24  12  24  24  24  24  24  24  24  24  24  24  24  24  24  24  24  24  12  24  24  24  24  24  24  12  24  24  24  24  12  24  24  24  24  24  24  24  24  24  12  24  24  24  24  24  12  24  24  24  24  24  24  24  24  24  24  24  24  24  24  24  24  24  24  24  24  24  24  24  12  24  12  12  24  24  24  24  12  24  24  24  24  24  24  24  24  24  24  24  24  24  24  24  24  24  12  24  24  24  24  24  12  24  24  24  24  12  24  24  12  24  12  24  24  24  24  24  24  24  24  24  12  24  24  24  24  24  24  24  12  24  24  24  24  12  12  24  24  12  24  12  24  24  24  12  12  24  12  24  24  24  24  12  24  12  24  24  24  24  24  24  24  24  24  24  24  24  24  24  24  24  24  12  12  24  24  24  24  24  24  24  24  24  24  12  24  24  24  24  24  24  24  24  24  24  24  24  24  24  24  24  24  24  24  24  24  24  24  12  24  12  24  24  24  24  24  24  12  24  12  12  24  12  24  12  24  24  24  24  24  12  24  24  24  24  24  24  24  24  24  24  24  12  12  24  24  24  24  24  24  12  24  24  24  12  12  24  24  24  24  24  24  24  24  24  24  24  24  24  24  24  24  24  24  24  24  24  24  24  24  12  12  24  24  24  24  24  24  24  24  24  24  24  24  24  24  24  24  24  24  24  12  12  24  24  24  24  24  24  24  24  24  12  24  24  24  24  24  24  24  24  24  24  24

  10  20  20  20  20  20  20  20  20  20  20  20  20  20  10  20  20  20  10  20  20  20  20  20  20  20  20  20  10  20  20  20  20  20  20  20  20  20  20  20  20  10  10  20  20  20  20  20  20  20  20  20  10  20  20  20  20  20  20  20  20  20  20  20  20  10  20  20  20  20  20  20  20  20  20  20  20  20  20  20  20  20  20  20  20  20  20  20  20  20  10  20  20  20  20  20  20  20  20  20  20  20  20  20  20  20  20  20  20  20  20  10  20  20  20  20  20  20  20  10  20  20  20  20  20  20  20  20  20  20  20  20  20  20  20  20  20  20  10  20  20  20  20  20  20  20  20  20  20  20  20  20  20  20  20  20  20  20  20  10  20  20  20  20  20  20  20  20  20  20  20  20  20  20  20  20  20  20  20  10  20  20  20  20  20  20  10  20  20  20  20  20  20  10  20  20  20  20  20  10  20  20  20  20  20  20  20  20  20  20  20  20  20  20  20  10  20  20  20  20  20  20  20  20  20  20  20  20  20  20  20  20  20  20  20  20  20  20  10  20  20  20  20  20  10  20  20  20  20  20  20  20  20  10  20  20  20  20  10  20  20  10  20  20  20  10  20  10  20  20  20  20  10  20  20  20  20  20  20  20  20  20  20  10  20  20  20  20  20  20  20  20  20  20  20  20  20  20  20  20  10  20  20  20  20  20  20  10  20  20  20  20  10  20  20  20  20  20  20  20  20  20  10  20  20  20  20  20  10  20  20  20  20  20  20  20  20  20  20  20  20  20  20  20  20  20  20  20  20  20  20  20  10  20  10  10  20  20  20  20  10  20  20  20  20  20  20  20  20  20  20  20  20  20  20  20  20  20  10  20  20  20  20  20  10  20  20  20  20  10  20  20  10  20  10  20  20  20  20  20  20  20  20  20  10  20  20  20  20  20  20  20  10  20  20  20  20  10  10  20  20  10  20  10  20  20  20  10  10  20  10  20  20  20  20  10  20  10  20  20  20  20  20  20  20  20  20  20  20  20  20  20  20  20  20  10  10  20  20  20  20  20  20  20  20  20  20  10  20  20  20  20  20  20  20  20  20  20  20  20  20  20  20  20  20  20  20  20  20  20  20  10  20  10  20  20  20  20  20  20  10  20  10  10  20  10  20  10  20  20  20  20  20  10  20  20  20  20  20  20  20  20  20  20  20  10  10  20  20  20  20  20  20  10  20  20  20  10  10  20  20  20  20  20  20  20  20  20  20  20  20  20  20  20  20  20  20  20  20  20  20  20  20  10  10  20  20  20  20  20  20  20  20  20  20  20  20  20  20  20  20  20  20  20  10  10  20  20  20  20  20  20  20  20  20  10  20  20  20  20  20  20  20  20  20  20  20

  11  22  22  22  22  22  22  22  22  22  22  22  22  22  11  22  22  22  11  22  22  22  22  22  22  22  22  22  11  22  22  22  22  22  22  22  22  22  22  22  22  11  11  22  22  22  22  22  22  22  22  22  11  22  22  22  22  22  22  22  22  22  22  22  22  11  22  22  22  22  22  22  22  22  22  22  22  22  22  22  22  22  22  22  22  22  22  22  22  22  11  22  22  22  22  22  22  22  22  22  22  22  22  22  22  22  22  22  22  22  22  11  22  22  22  22  22  22  22  11  22  22  22  22  22  22  22  22  22  22  22  22  22  22  22  22  22  22  11  22  22  22  22  22  22  22  22  22  22  22  22  22  22  22  22  22  22  22  22  11  22  22  22  22  22  22  22  22  22  22  22  22  22  22  22  22  22  22  22  11  22  22  22  22  22  22  11  22  22  22  22  22  22  11  22  22  22  22  22  11  22  22  22  22  22  22  22  22  22  22  22  22  22  22  22  11  22  22  22  22  22  22  22  22  22  22  22  22  22  22  22  22  22  22  22  22  22  22  11  22  22  22  22  22  11  22  22  22  22  22  22  22  22  11  22  22  22  22  11  22  22  11  22  22  22  11  22  11  22  22  22  22  11  22  22  22  22  22  22  22  22  22  22  11  22  22  22  22  22  22  22  22  22  22  22  22  22  22  22  22  11  22  22  22  22  22  22  11  22  22  22  22  11  22  22  22  22  22  22  22  22  22  11  22  22  22  22  22  11  22  22  22  22  22  22  22  22  22  22  22  22  22  22  22  22  22  22  22  22  22  22  22  11  22  11  11  22  22  22  22  11  22  22  22  22  22  22  22  22  22  22  22  22  22  22  22  22  22  11  22  22  22  22  22  11  22  22  22  22  11  22  22  11  22  11  22  22  22  22  22  22  22  22  22  11  22  22  22  22  22  22  22  11  22  22  22  22  11  11  22  22  11  22  11  22  22  22  11  11  22  11  22  22  22  22  11  22  11  22  22  22  22  22  22  22  22  22  22  22  22  22  22  22  22  22  11  11  22  22  22  22  22  22  22  22  22  22  11  22  22  22  22  22  22  22  22  22  22  22  22  22  22  22  22  22  22  22  22  22  22  22  11  22  11  22  22  22  22  22  22  11  22  11  11  22  11  22  11  22  22  22  22  22  11  22  22  22  22  22  22  22  22  22  22  22  11  11  22  22  22  22  22  22  11  22  22  22  11  11  22  22  22  22  22  22  22  22  22  22  22  22  22  22  22  22  22  22  22  22  22  22  22  22  11  11  22  22  22  22  22  22  22  22  22  22  22  22  22  22  22  22  22  22  22  11  11  22  22  22  22  22  22  22  22  22  11  22  22  22  22  22  22  22  22  22  22  22

************************************************************************
